decision_x1=[0,2];
decision_x2=[0,2];
decision_x3=[0,2];
decision_x4=[0,2];
decision_x5=[0,2];
decision_x6=[0,2];
decision_x7=[0,2];
decision_x8=[0,2];
random_y1=[0,2];
random_y2=[0,2];
constraint_x2_x1=[
0,0,4.1|
0,1,8.4|
0,2,1.5|
1,0,0.25|
1,1,4.4|
1,2,2.1|
2,0,0.23|
2,1,9.3|
2,2,8.6|
];
constraint_x3_x1=[
0,0,0.91|
0,1,5.6|
0,2,0.17|
1,0,8.6|
1,1,9.9|
1,2,3.7|
2,0,2.5|
2,1,8.5|
2,2,5.3|
];
constraint_x4_x1=[
0,0,9.1|
0,1,7.8|
0,2,7|
1,0,5.9|
1,1,0.15|
1,2,7.8|
2,0,4.9|
2,1,4.1|
2,2,9.1|
];
constraint_x4_x2=[
0,0,0.13|
0,1,2.8|
0,2,1.7|
1,0,8.9|
1,1,9.1|
1,2,4.2|
2,0,8.1|
2,1,2.6|
2,2,5.8|
];
constraint_x4_x3=[
0,0,3.8|
0,1,3|
0,2,6.6|
1,0,4.4|
1,1,5.4|
1,2,8.2|
2,0,0.36|
2,1,3.2|
2,2,5.8|
];
constraint_x5_x1=[
0,0,8.4|
0,1,0.79|
0,2,5.2|
1,0,2.3|
1,1,5|
1,2,3.2|
2,0,0.91|
2,1,4.8|
2,2,4.9|
];
constraint_x5_x3=[
0,0,3.1|
0,1,3|
0,2,4.5|
1,0,5.7|
1,1,6.9|
1,2,9.2|
2,0,9.8|
2,1,8.5|
2,2,8.5|
];
constraint_x6_x4=[
0,0,6.5|
0,1,9.6|
0,2,4.9|
1,0,2.2|
1,1,5.4|
1,2,1.8|
2,0,2.9|
2,1,7.6|
2,2,8.2|
];
constraint_x7_x1=[
0,0,4.8|
0,1,0.41|
0,2,5.1|
1,0,4.7|
1,1,0.84|
1,2,7.9|
2,0,6.6|
2,1,6.7|
2,2,3.5|
];
constraint_x7_x3=[
0,0,9.7|
0,1,6.8|
0,2,7.1|
1,0,4.7|
1,1,4.4|
1,2,1.8|
2,0,0.66|
2,1,4.3|
2,2,1.6|
];
constraint_x7_x6=[
0,0,1.2|
0,1,2.2|
0,2,8.6|
1,0,5.7|
1,1,9.1|
1,2,0.22|
2,0,8.1|
2,1,9.6|
2,2,5.8|
];
constraint_x8_x3=[
0,0,8.3|
0,1,5.1|
0,2,8.5|
1,0,7.4|
1,1,5.7|
1,2,8.4|
2,0,4|
2,1,1.9|
2,2,8.1|
];
constraint_x8_x5=[
0,0,4.2|
0,1,7.3|
0,2,1.7|
1,0,0.2|
1,1,0.75|
1,2,1.6|
2,0,9.9|
2,1,2.3|
2,2,7.5|
];
constraint_x8_x7=[
0,0,1.4|
0,1,9.5|
0,2,5.2|
1,0,7.8|
1,1,2.1|
1,2,9.1|
2,0,5.8|
2,1,4.4|
2,2,8.9|
];
constraint_x1_y1=[
0,0,7.7|
0,1,9|
0,2,9|
1,0,6.1|
1,1,2.9|
1,2,6.8|
2,0,4.2|
2,1,6|
2,2,4|
];
constraint_x2_y2=[
0,0,7.8|
0,1,5|
0,2,3.1|
1,0,9.6|
1,1,7.7|
1,2,6.2|
2,0,0.69|
2,1,2|
2,2,9|
];
initial_distribution_y1=[0.13,0.4,0.47];
initial_distribution_y2=[0.12,0.43,0.44];
transition_y1=[
0.3,0.36,0.33|
0.65,0.22,0.14|
0.18,0.065,0.75|
];
transition_y2=[
0.24,0.39,0.37|
0.23,0.21,0.56|
0.37,0.34,0.29|
];
